32      4       
14      28      20      16      
0       0       0       0       0       3       2       3       4       
10      0       8       0       0       3       9       14      27      
3       0       0       0       3       3       6       11      30      
7       0       0       0       5       3       5       7       10      
5       0       0       0       7       2       19      24      
5       0       0       0       7       3       8       15      19      
10      2       0       0       0       1       20      
5       3       0       0       0       3       12      13      18      
9       0       0       6       0       3       13      15      16      
4       0       0       0       2       3       17      18      25      
7       9       0       0       0       2       24      26      
10      2       0       0       0       2       21      26      
7       0       10      0       0       2       21      25      
8       0       7       0       0       3       21      23      25      
10      0       5       0       0       2       23      29      
5       0       9       0       0       3       17      18      19      
7       0       0       6       0       1       28      
3       7       0       0       0       3       22      26      28      
9       0       3       0       0       1       29      
6       0       0       6       0       1       23      
5       0       0       0       3       1       22      
8       0       10      0       0       1       24      
9       0       3       0       0       1       28      
2       0       6       0       0       1       31      
6       0       0       6       0       1       31      
8       0       0       8       0       1       29      
2       1       0       0       0       1       30      
4       0       0       1       0       1       31      
4       0       2       0       0       1       32      
8       0       4       0       0       1       32      
7       1       0       0       0       1       32      
0       0       0       0       0       0       